779,789
257,267
948,958
222,232
476,486
158,168
155,165
650,660
56,66
696,706
926,936
324,334
436,446
405,415
586,596
296,306
714,724
437,447
288,298
655,665
404,414
277,287
416,426
808,818
667,677
218,228
784,794
480,490
113,123
344,354
493,503
993,1003
58,68
324,334
227,237
871,881
60,70
864,874
952,962
986,996
322,332
610,620
723,733
298,308
757,767
149,159
580,590
392,402
965,975
961,971
657,667
460,470
794,804
779,789
634,644
418,428
392,402
506,516
827,837
367,377
31,41
324,334
17,27
101,111
78,88
30,40
261,271
657,667
109,119
17,27
849,859
502,512
27,37
568,578
47,57

2047
2012
1805
1673
1494
1891
1936
1749
1819
